p edge 30 35 5
v 8 3 5 7 11 18 20 23 30
v 4 1 19 22 29
v 5 4 6 10 12 14
v 8 2 9 13 16 24 26 27 28
v 5 8 15 17 21 25
e 1 2
e 1 16
e 1 27
e 1 28
e 2 20
e 2 21
e 2 23
e 3 24
e 4 6
e 4 9
e 5 19
e 6 12
e 6 26
e 6 30
e 7 12
e 7 28
e 8 20
e 10 16
e 13 22
e 13 25
e 13 29
e 14 20
e 14 22
e 15 18
e 15 27
e 17 20
e 17 30
e 19 26
e 19 29
e 20 25
e 22 25
e 23 24
e 24 29
e 26 28
e 27 30
